53063
46 36 402
36 15 679
15 52 631
52 25 874
25 31 299
31 27 4460
27 1 4123
1 33 7621
33 42 4807
42 11 1343
11 45 436
45 2 787
2 14 433
14 9 471
9 12 723
12 18 768
18 4 606
4 30 380
30 47 944
47 54 491
54 34 401
34 53 396
53 48 1095
48 49 761
49 26 560
26 55 397
55 28 487
28 6 404
6 3 385
3 43 1096
43 13 790
13 51 644
51 40 1042
40 7 1176
7 37 517
37 20 714
20 50 763
50 24 868
24 35 296
35 5 323
5 41 714
41 32 362
32 8 678
8 38 368
38 44 690
44 19 1282
19 17 1205
17 23 619
23 21 176
21 29 516
29 22 544
22 10 117
10 16 734
16 39 451
39 46 214
